; generated by a call to `klee_dump_expr(.., pos_n)`
(declare-fun pos () (Array (_ BitVec 32) (_ BitVec 8) ) )
; dumped expression
(define-fun |pos_n_2| () (_ BitVec 32) (bvadd  (_ bv4294967295 32) (concat  (select  pos (_ bv3 32) ) (concat  (select  pos (_ bv2 32) ) (concat  (select  pos (_ bv1 32) ) (select  pos (_ bv0 32) ) ) ) ) ))
; path condition under which dumped expression is valid (use in ITE)
(define-fun |path_cond_2| () Bool (=  false (bvslt  (concat  (select  pos (_ bv3 32) ) (concat  (select  pos (_ bv2 32) ) (concat  (select  pos (_ bv1 32) ) (select  pos (_ bv0 32) ) ) ) ) (_ bv4294967197 32) ) ))
